multiobj/solutions/Ter.5.3.1.00.3.out
1 3
2 3 4 0 1 
1705048 1705048 1705048 
